experiments/lot-sizing/detailed-output/inst-9-735527639.dzn

change_cost = array2d(0..8, 0..8,
                      [0, 0, 0, 0, 0, 0, 0, 0, 0, 0, 0, 128, 18, 176, 185, 148, 80, 161,
                       0, 186, 0, 181, 156, 96, 149, 59, 65, 0, 35, 163, 0, 195, 195, 172, 112, 192,
                       0, 179, 167, 146, 0, 147, 119, 78, 183, 0, 125, 38, 137, 90, 0, 79, 38, 72,
                       0, 182, 155, 198, 193, 191, 0, 114, 150, 0, 158, 119, 145, 162, 128, 195, 0, 118,
                       0, 163, 24, 148, 138, 116, 86, 38, 0]);
due_period = array1d(1..8, [10, 3, 1, 8, 8, 4, 5, 5]);
inventory_cost = 8;
item_type = array1d(0..8, [0, 1, 2, 2, 2, 3, 4, 5, 6]);
nb_item_types = 6;
nb_of_orders = array1d(1..6, [1, 3, 1, 1, 1, 1]);
nb_orders = 8;
nb_periods = 10;
